NAME : d1291
TYPE : OP
DIMENSION : 1291
COST_LIMIT : 5081
ROUTE_NODES : 72
ROUTE_SCORE : 4024
ROUTE_COST : 5078
NODE_SEQUENCE_SECTION
1
3
4
5
6
7
8
9
10
11
12
13
14
15
299
261
262
263
264
265
266
267
268
269
270
271
272
273
274
275
276
277
278
279
280
281
282
283
284
285
286
287
311
371
372
373
308
374
307
306
376
377
304
303
379
302
301
381
382
16
17
18
19
20
21
22
23
24
25
26
27
28
-1
DEPOT_SECTION
1
-1
EOF
